&CONTROL
  calculation = 'scf'
  etot_conv_thr =   2.8000000000d-04
  forc_conv_thr =   1.0000000000d-04
  outdir = './out/'
  prefix = 'aiida'
  pseudo_dir = './pseudo/'
  tprnfor = .true.
  tstress = .true.
  verbosity = 'high'
/
&SYSTEM
  degauss =   1.4699723600d-02
  ecutrho =   1.0800000000d+03
  ecutwfc =   9.0000000000d+01
  ibrav = 0
  nat = 28
  nosym = .false.
  nspin = 2
  ntyp = 3
  occupations = 'smearing'
  smearing = 'cold'
  starting_magnetization(1) =   3.1250000000d-01
  starting_magnetization(2) =   4.5454545455d-01
  starting_magnetization(3) =   1.0000000000d-01
/
&ELECTRONS
  conv_thr =   5.6000000000d-09
  electron_maxstep = 80
  mixing_beta =   4.0000000000d-01
/
ATOMIC_SPECIES
Fe     55.845 Fe.pbesol-spn-kjpaw_psl.0.2.1.UPF
La     138.90547 La.paw.z_11.atompaw.wentzcovitch.v1.2.upf
Si     28.0855 Si.pbesol-n-rrkjus_psl.1.0.0.UPF
ATOMIC_POSITIONS crystal
Fe           0.9389600000       0.4389600000       0.6394820000 
Fe           0.4389600000       0.7005220000       0.6394820000 
Fe           0.7994780000       0.0610400000       0.3605180000 
Fe           0.0610400000       0.5610400000       0.3605180000 
Fe           0.2994780000       0.7994780000       0.3605180000 
Fe           0.2005220000       0.9389600000       0.6394820000 
Fe           0.7005220000       0.2005220000       0.6394820000 
Fe           0.5610400000       0.2994780000       0.3605180000 
Fe           0.5637250000       0.7013730000       1.0000000000 
Fe           0.0000000000       0.5000000000       0.0000000000 
Fe           0.9362750000       0.2013730000       1.0000000000 
Fe           0.4362750000       0.2986270000       0.0000000000 
Fe           0.7986270000       0.9362750000       1.0000000000 
Fe           0.2013730000       0.0637250000       0.0000000000 
Fe           0.0637250000       0.7986270000       0.0000000000 
Fe           0.2986270000       0.5637250000       0.0000000000 
Fe           0.5000000000       0.0000000000       1.0000000000 
Fe           0.7013730000       0.4362750000       1.0000000000 
La           0.2500000000       0.2500000000       0.5000000000 
La           0.7500000000       0.7500000000       0.5000000000 
Si           0.2962890000       0.4437850000       0.2400740000 
Si           0.0562150000       0.2037110000       0.7599260000 
Si           0.5562150000       0.0562150000       0.7599260000 
Si           0.2037110000       0.7037110000       0.7599260000 
Si           0.9437850000       0.7962890000       0.2400740000 
Si           0.7962890000       0.2962890000       0.2400740000 
Si           0.7037110000       0.5562150000       0.7599260000 
Si           0.4437850000       0.9437850000       0.2400740000 
K_POINTS automatic
5 5 6 0 0 0
CELL_PARAMETERS angstrom
      7.9104180000      -0.0000000000      -0.0000000000
      0.0000000000       7.9104180000       0.0000000000
     -3.9552090000      -3.9552090000       5.7838260000
